<number of tasks>
50

<cycle time>
1000

<order strength>
0.595


<task times>
1 800
2 524
3 384
4 657
5 475
6 466
7 559
8 490
9 603
10 626
11 440
12 716
13 428
14 432
15 528
16 482
17 540
18 620
19 501
20 570
21 634
22 545
23 538
24 553
25 470
26 367
27 493
28 568
29 473
30 455
31 338
32 630
33 789
34 567
35 619
36 424
37 468
38 619
39 714
40 462
41 563
42 546
43 634
44 437
45 541
46 595
47 574
48 565
49 387
50 448

<precedence relations>
1,8
1,22
2,6
2,8
3,7
4,11
4,14
5,9
5,12
5,13
6,14
6,21
7,10
7,11
7,13
8,12
8,14
9,10
9,14
10,15
11,15
12,16
13,17
13,34
15,16
15,17
15,18
15,19
15,20
16,25
16,27
17,22
17,24
18,21
18,22
18,23
19,39
20,21
20,23
20,24
21,32
22,26
22,28
22,29
23,27
23,40
24,49
25,26
25,28
25,29
25,32
26,33
26,41
27,32
27,35
27,39
28,31
28,35
29,30
29,31
30,36
30,39
31,37
31,39
31,45
31,46
31,47
32,34
33,35
33,38
34,48
34,49
34,50
35,43
35,44
36,40
37,42
38,42
39,41
39,43
40,45
40,46
40,48
42,49
42,50
44,46
44,47

<end>
